Input file: instance_20.lp
Input data:
num_squadre(2).
player(1, attaccante, difensore).
player(2, attaccante, portiere).
player(3, portiere, centrocampista).
player(4, attaccante, portiere).
player(5, attaccante, centrocampista).
player(6, difensore, portiere).
player(7, attaccante, centrocampista).
player(8, attaccante, difensore).
player(9, portiere, difensore).
player(10, attaccante, centrocampista).
player(11, portiere, attaccante).
player(12, centrocampista, difensore).
player(13, attaccante, centrocampista).
player(14, difensore, portiere).
player(15, difensore, centrocampista).
player(16, portiere, attaccante).
player(17, centrocampista, attaccante).
player(18, portiere, difensore).
player(19, difensore, portiere).
player(20, portiere, difensore).
player(21, difensore, centrocampista).
player(22, centrocampista, portiere).
player(23, centrocampista, difensore).
player(24, difensore, attaccante).
player(25, portiere, centrocampista).
player(26, attaccante, centrocampista).
player(27, attaccante, portiere).
player(28, portiere, difensore).
player(29, portiere, difensore).
player(30, difensore, portiere).
player(31, attaccante, centrocampista).
player(32, difensore, portiere).
player(33, difensore, portiere).
player(34, attaccante, difensore).
player(35, attaccante, portiere).
different_team(1, 2).
different_team(6, 15).
different_team(7, 8).
different_team(4, 16).
different_team(30, 31).
different_team(7, 25).

Output Clingo:
clingo version 5.7.1
Reading from ...ed-Reasoning-Project\Clingo\implASP.lp ...
Solving...
Answer: 1
assigned(1,2,difensore) assigned(2,1,portiere) assigned(3,2,portiere) assigned(4,1,attaccante) assigned(5,1,attaccante) assigned(6,1,difensore) assigned(7,1,centrocampista) assigned(8,2,difensore) assigned(9,2,difensore) assigned(10,1,attaccante) assigned(11,1,attaccante) assigned(12,2,difensore) assigned(13,1,attaccante) assigned(14,2,difensore) assigned(15,2,difensore) assigned(16,2,attaccante) assigned(17,1,centrocampista) assigned(18,2,difensore) assigned(19,2,difensore) assigned(20,2,difensore) assigned(21,2,difensore) assigned(22,1,centrocampista) assigned(23,2,difensore) assigned(24,2,difensore) assigned(25,2,centrocampista) assigned(26,1,attaccante) assigned(27,1,attaccante) assigned(28,2,difensore) assigned(29,2,difensore) assigned(30,1,difensore) assigned(31,2,centrocampista) assigned(32,2,difensore) assigned(33,2,difensore) assigned(34,2,difensore) assigned(35,1,attaccante) total_penalty(1)
Optimization: 1
Answer: 1
assigned(1,1,attaccante) assigned(2,2,attaccante) assigned(3,2,centrocampista) assigned(4,1,attaccante) assigned(5,1,centrocampista) assigned(6,2,difensore) assigned(7,2,attaccante) assigned(8,1,attaccante) assigned(9,2,difensore) assigned(10,1,centrocampista) assigned(11,2,portiere) assigned(12,1,difensore) assigned(13,2,centrocampista) assigned(14,1,difensore) assigned(15,1,centrocampista) assigned(16,2,attaccante) assigned(17,1,centrocampista) assigned(18,2,difensore) assigned(19,2,difensore) assigned(20,1,difensore) assigned(21,2,difensore) assigned(22,1,centrocampista) assigned(23,2,difensore) assigned(24,2,difensore) assigned(25,1,centrocampista) assigned(26,2,centrocampista) assigned(27,1,portiere) assigned(28,2,difensore) assigned(29,2,difensore) assigned(30,2,difensore) assigned(31,1,centrocampista) assigned(32,2,difensore) assigned(33,2,difensore) assigned(34,2,difensore) assigned(35,2,attaccante) total_penalty(1)
Optimization: 1
OPTIMUM FOUND

Models       : 2+
  Optimum    : yes
Optimization : 1
Calls        : 1
Time         : 0.010s (Solving: 0.00s 1st Model: 0.00s Unsat: 0.00s)
CPU Time     : 0.000s

Tempo di esecuzione Clingo: 0.03 secondi
